60
26 5
5 5
7 3
27 22
10 33
14 67
21 57
23 24
19 37
5 78
1 12
5 70
21 71
8 87
28 63
29 72
6 53
16 64
15 54
28 42
30 76
3 51
24 72
8 57
14 45
8 15
14 5
27 43
21 86
11 45
28 48
2 19
12 43
28 7
20 18
4 86
28 12
23 26
22 14
18 43
27 16
12 65
29 92
20 98
4 39
28 30
8 61
25 90
8 82
29 55
10 100
23 92
29 79
12 97
29 3
18 1
16 47
19 41
20 76
17 68
